75
2 1 132
3 1 793
3 2 744
4 1 140
4 2 705
4 3 435
5 1 937
5 2 6
5 3 693
5 4 735
6 1 158
6 2 569
6 3 2
6 4 710
6 5 376
7 1 376
7 2 945
7 3 885
7 4 334
7 5 639
7 6 552
8 1 478
8 2 762
8 3 799
8 4 73
8 5 751
8 6 841
8 7 842
9 1 366
9 2 255
9 3 750
9 4 241
9 5 113
9 6 10
9 7 347
9 8 666
10 1 48
10 2 832
10 3 315
10 4 819
10 5 658
10 6 341
10 7 326
10 8 52
10 9 17
11 1 400
11 2 44
11 3 619
11 4 732
11 5 969
11 6 44
11 7 707
11 8 152
11 9 655
11 10 946
12 1 624
12 2 320
12 3 443
12 4 339
12 5 763
12 6 333
12 7 368
12 8 315
12 9 232
12 10 60
12 11 134
13 1 673
13 2 276
13 3 411
13 4 931
13 5 113
13 6 867
13 7 595
13 8 953
13 9 983
13 10 88
13 11 65
13 12 374
14 1 400
14 2 202
14 3 82
14 4 789
14 5 808
14 6 521
14 7 93
14 8 358
14 9 291
14 10 465
14 11 369
14 12 181
14 13 206
15 1 428
15 2 590
15 3 636
15 4 953
15 5 348
15 6 321
15 7 699
15 8 950
15 9 88
15 10 559
15 11 491
15 12 131
15 13 22
15 14 817
16 1 558
16 2 521
16 3 452
16 4 411
16 5 642
16 6 722
16 7 732
16 8 901
16 9 945
16 10 368
16 11 230
16 12 890
16 13 131
16 14 865
16 15 506
17 1 594
17 2 584
17 3 975
17 4 335
17 5 905
17 6 669
17 7 85
17 8 455
17 9 866
17 10 1
17 11 194
17 12 167
17 13 764
17 14 970
17 15 962
17 16 169
18 1 270
18 2 37
18 3 373
18 4 247
18 5 330
18 6 547
18 7 833
18 8 712
18 9 736
18 10 63
18 11 768
18 12 699
18 13 579
18 14 482
18 15 39
18 16 718
18 17 21
19 1 427
19 2 740
19 3 80
19 4 72
19 5 676
19 6 197
19 7 80
19 8 326
19 9 627
19 10 234
19 11 60
19 12 834
19 13 61
19 14 16
19 15 741
19 16 566
19 17 697
19 18 48
20 1 443
20 2 146
20 3 295
20 4 137
20 5 76
20 6 807
20 7 323
20 8 383
20 9 38
20 10 748
20 11 419
20 12 522
20 13 380
20 14 356
20 15 179
20 16 181
20 17 888
20 18 949
20 19 997
21 1 866
21 2 947
21 3 19
21 4 987
21 5 747
21 6 327
21 7 145
21 8 221
21 9 554
21 10 251
21 11 13
21 12 798
21 13 158
21 14 403
21 15 257
21 16 494
21 17 643
21 18 722
21 19 38
21 20 996
22 1 949
22 2 139
22 3 569
22 4 980
22 5 387
22 6 619
22 7 17
22 8 526
22 9 600
22 10 143
22 11 481
22 12 635
22 13 794
22 14 507
22 15 985
22 16 844
22 17 290
22 18 68
22 19 671
22 20 200
22 21 723
23 1 821
23 2 647
23 3 88
23 4 452
23 5 418
23 6 166
23 7 676
23 8 3
23 9 37
23 10 92
23 11 973
23 12 600
23 13 199
23 14 828
23 15 764
23 16 107
23 17 936
23 18 167
23 19 911
23 20 951
23 21 924
23 22 741
24 1 789
24 2 839
24 3 469
24 4 14
24 5 849
24 6 328
24 7 463
24 8 19
24 9 579
24 10 579
24 11 713
24 12 265
24 13 334
24 14 847
24 15 235
24 16 518
24 17 835
24 18 541
24 19 434
24 20 395
24 21 295
24 22 892
24 23 257
25 1 956
25 2 463
25 3 583
25 4 739
25 5 743
25 6 58
25 7 872
25 8 532
25 9 950
25 10 379
25 11 46
25 12 331
25 13 680
25 14 68
25 15 268
25 16 295
25 17 456
25 18 292
25 19 125
25 20 863
25 21 453
25 22 851
25 23 459
25 24 592
26 1 125
26 2 955
26 3 280
26 4 881
26 5 176
26 6 686
26 7 839
26 8 724
26 9 65
26 10 390
26 11 178
26 12 873
26 13 488
26 14 505
26 15 714
26 16 22
26 17 519
26 18 585
26 19 679
26 20 915
26 21 370
26 22 513
26 23 488
26 24 483
26 25 941
27 1 167
27 2 342
27 3 411
27 4 619
27 5 35
27 6 633
27 7 745
27 8 999
27 9 542
27 10 980
27 11 432
27 12 489
27 13 82
27 14 943
27 15 914
27 16 973
27 17 15
27 18 746
27 19 154
27 20 984
27 21 139
27 22 574
27 23 735
27 24 72
27 25 373
27 26 250
28 1 891
28 2 316
28 3 678
28 4 371
28 5 618
28 6 160
28 7 449
28 8 214
28 9 231
28 10 25
28 11 895
28 12 976
28 13 2
28 14 386
28 15 156
28 16 166
28 17 761
28 18 252
28 19 165
28 20 224
28 21 574
28 22 237
28 23 495
28 24 664
28 25 898
28 26 679
28 27 722
29 1 327
29 2 829
29 3 483
29 4 28
29 5 553
29 6 316
29 7 629
29 8 66
29 9 334
29 10 489
29 11 551
29 12 336
29 13 768
29 14 463
29 15 816
29 16 581
29 17 386
29 18 254
29 19 796
29 20 941
29 21 159
29 22 687
29 23 274
29 24 892
29 25 254
29 26 417
29 27 187
29 28 202
30 1 861
30 2 453
30 3 925
30 4 428
30 5 654
30 6 810
30 7 903
30 8 686
30 9 694
30 10 158
30 11 324
30 12 721
30 13 859
30 14 614
30 15 342
30 16 510
30 17 98
30 18 44
30 19 55
30 20 919
30 21 88
30 22 506
30 23 30
30 24 156
30 25 107
30 26 713
30 27 288
30 28 27
30 29 185
31 1 653
31 2 954
31 3 258
31 4 857
31 5 729
31 6 1
31 7 367
31 8 78
31 9 64
31 10 795
31 11 864
31 12 122
31 13 834
31 14 359
31 15 761
31 16 527
31 17 778
31 18 576
31 19 665
31 20 400
31 21 242
31 22 748
31 23 941
31 24 660
31 25 406
31 26 217
31 27 708
31 28 18
31 29 550
31 30 981
32 1 675
32 2 783
32 3 519
32 4 503
32 5 65
32 6 782
32 7 732
32 8 152
32 9 123
32 10 990
32 11 387
32 12 961
32 13 990
32 14 662
32 15 736
32 16 659
32 17 908
32 18 47
32 19 554
32 20 147
32 21 43
32 22 4
32 23 183
32 24 883
32 25 414
32 26 65
32 27 781
32 28 843
32 29 682
32 30 790
32 31 656
33 1 26
33 2 808
33 3 457
33 4 813
33 5 665
33 6 834
33 7 420
33 8 91
33 9 613
33 10 282
33 11 686
33 12 517
33 13 578
33 14 939
33 15 541
33 16 766
33 17 152
33 18 18
33 19 287
33 20 845
33 21 830
33 22 960
33 23 400
33 24 384
33 25 454
33 26 374
33 27 686
33 28 164
33 29 783
33 30 872
33 31 241
33 32 759
34 1 113
34 2 800
34 3 293
34 4 422
34 5 164
34 6 122
34 7 231
34 8 595
34 9 647
34 10 964
34 11 393
34 12 666
34 13 226
34 14 559
34 15 428
34 16 864
34 17 800
34 18 615
34 19 307
34 20 406
34 21 310
34 22 342
34 23 277
34 24 285
34 25 499
34 26 658
34 27 353
34 28 328
34 29 329
34 30 315
34 31 144
34 32 394
34 33 982
35 1 955
35 2 82
35 3 854
35 4 655
35 5 356
35 6 386
35 7 718
35 8 573
35 9 352
35 10 302
35 11 50
35 12 919
35 13 205
35 14 458
35 15 542
35 16 625
35 17 420
35 18 388
35 19 381
35 20 215
35 21 254
35 22 547
35 23 780
35 24 125
35 25 431
35 26 379
35 27 814
35 28 226
35 29 816
35 30 254
35 31 432
35 32 451
35 33 45
35 34 354
36 1 770
36 2 750
36 3 371
36 4 798
36 5 155
36 6 795
36 7 227
36 8 601
36 9 420
36 10 138
36 11 270
36 12 263
36 13 415
36 14 750
36 15 884
36 16 65
36 17 833
36 18 148
36 19 430
36 20 381
36 21 747
36 22 543
36 23 722
36 24 583
36 25 468
36 26 700
36 27 488
36 28 343
36 29 614
36 30 448
36 31 833
36 32 407
36 33 518
36 34 48
36 35 934
37 1 153
37 2 352
37 3 839
37 4 499
37 5 505
37 6 596
37 7 863
37 8 714
37 9 11
37 10 728
37 11 419
37 12 716
37 13 158
37 14 273
37 15 718
37 16 807
37 17 238
37 18 582
37 19 99
37 20 951
37 21 332
37 22 965
37 23 490
37 24 275
37 25 228
37 26 76
37 27 46
37 28 609
37 29 340
37 30 657
37 31 175
37 32 285
37 33 941
37 34 36
37 35 378
37 36 733
38 1 286
38 2 993
38 3 602
38 4 601
38 5 429
38 6 894
38 7 37
38 8 420
38 9 804
38 10 196
38 11 569
38 12 56
38 13 898
38 14 726
38 15 304
38 16 464
38 17 564
38 18 344
38 19 881
38 20 489
38 21 804
38 22 886
38 23 489
38 24 720
38 25 83
38 26 496
38 27 803
38 28 657
38 29 488
38 30 746
38 31 269
38 32 686
38 33 307
38 34 159
38 35 422
38 36 622
38 37 836
39 1 20
39 2 198
39 3 820
39 4 484
39 5 606
39 6 414
39 7 110
39 8 489
39 9 200
39 10 866
39 11 63
39 12 822
39 13 543
39 14 732
39 15 336
39 16 76
39 17 576
39 18 226
39 19 101
39 20 431
39 21 621
39 22 693
39 23 816
39 24 986
39 25 368
39 26 579
39 27 838
39 28 50
39 29 300
39 30 982
39 31 634
39 32 179
39 33 442
39 34 714
39 35 595
39 36 61
39 37 552
39 38 65
40 1 698
40 2 526
40 3 135
40 4 720
40 5 536
40 6 286
40 7 921
40 8 509
40 9 455
40 10 187
40 11 667
40 12 944
40 13 809
40 14 70
40 15 426
40 16 716
40 17 589
40 18 527
40 19 660
40 20 619
40 21 918
40 22 149
40 23 815
40 24 565
40 25 187
40 26 59
40 27 252
40 28 652
40 29 810
40 30 806
40 31 657
40 32 465
40 33 877
40 34 934
40 35 303
40 36 62
40 37 188
40 38 803
40 39 798
41 1 319
41 2 439
41 3 454
41 4 205
41 5 594
41 6 549
41 7 613
41 8 648
41 9 893
41 10 394
41 11 129
41 12 791
41 13 978
41 14 442
41 15 423
41 16 826
41 17 107
41 18 54
41 19 764
41 20 833
41 21 358
41 22 445
41 23 430
41 24 653
41 25 718
41 26 560
41 27 85
41 28 648
41 29 378
41 30 376
41 31 920
41 32 982
41 33 934
41 34 377
41 35 395
41 36 293
41 37 428
41 38 210
41 39 631
41 40 891
42 1 421
42 2 773
42 3 773
42 4 864
42 5 547
42 6 238
42 7 904
42 8 710
42 9 227
42 10 768
42 11 300
42 12 389
42 13 495
42 14 930
42 15 120
42 16 905
42 17 121
42 18 52
42 19 825
42 20 819
42 21 476
42 22 35
42 23 912
42 24 302
42 25 831
42 26 376
42 27 762
42 28 619
42 29 25
42 30 394
42 31 679
42 32 167
42 33 703
42 34 925
42 35 432
42 36 454
42 37 557
42 38 983
42 39 870
42 40 630
42 41 264
43 1 148
43 2 424
43 3 474
43 4 70
43 5 672
43 6 561
43 7 948
43 8 194
43 9 575
43 10 509
43 11 697
43 12 516
43 13 214
43 14 817
43 15 136
43 16 216
43 17 99
43 18 574
43 19 988
43 20 329
43 21 947
43 22 335
43 23 420
43 24 387
43 25 231
43 26 99
43 27 135
43 28 607
43 29 729
43 30 875
43 31 63
43 32 302
43 33 830
43 34 673
43 35 529
43 36 466
43 37 590
43 38 978
43 39 20
43 40 716
43 41 806
43 42 31
44 1 934
44 2 44
44 3 604
44 4 466
44 5 946
44 6 61
44 7 292
44 8 143
44 9 856
44 10 671
44 11 492
44 12 225
44 13 59
44 14 387
44 15 793
44 16 825
44 17 14
44 18 696
44 19 440
44 20 783
44 21 339
44 22 206
44 23 803
44 24 395
44 25 407
44 26 475
44 27 642
44 28 159
44 29 584
44 30 748
44 31 403
44 32 854
44 33 474
44 34 21
44 35 70
44 36 511
44 37 808
44 38 129
44 39 317
44 40 112
44 41 857
44 42 810
44 43 958
45 1 58
45 2 489
45 3 921
45 4 959
45 5 745
45 6 261
45 7 255
45 8 515
45 9 796
45 10 164
45 11 648
45 12 937
45 13 783
45 14 908
45 15 327
45 16 362
45 17 490
45 18 871
45 19 673
45 20 538
45 21 41
45 22 94
45 23 853
45 24 185
45 25 462
45 26 944
45 27 11
45 28 684
45 29 482
45 30 339
45 31 957
45 32 114
45 33 655
45 34 645
45 35 543
45 36 860
45 37 109
45 38 638
45 39 176
45 40 331
45 41 486
45 42 155
45 43 145
45 44 514
46 1 904
46 2 307
46 3 724
46 4 387
46 5 984
46 6 402
46 7 221
46 8 431
46 9 291
46 10 928
46 11 427
46 12 755
46 13 714
46 14 250
46 15 156
46 16 581
46 17 643
46 18 891
46 19 809
46 20 97
46 21 981
46 22 520
46 23 169
46 24 935
46 25 318
46 26 37
46 27 845
46 28 760
46 29 830
46 30 372
46 31 83
46 32 758
46 33 730
46 34 891
46 35 867
46 36 987
46 37 317
46 38 524
46 39 502
46 40 875
46 41 962
46 42 3
46 43 138
46 44 357
46 45 579
47 1 831
47 2 898
47 3 403
47 4 408
47 5 876
47 6 582
47 7 947
47 8 177
47 9 697
47 10 111
47 11 466
47 12 950
47 13 1
47 14 174
47 15 714
47 16 235
47 17 847
47 18 756
47 19 372
47 20 172
47 21 483
47 22 491
47 23 602
47 24 853
47 25 940
47 26 40
47 27 774
47 28 111
47 29 767
47 30 921
47 31 867
47 32 319
47 33 531
47 34 494
47 35 290
47 36 42
47 37 963
47 38 38
47 39 134
47 40 591
47 41 882
47 42 110
47 43 110
47 44 794
47 45 267
47 46 631
48 1 667
48 2 573
48 3 119
48 4 389
48 5 64
48 6 107
48 7 979
48 8 895
48 9 368
48 10 680
48 11 240
48 12 799
48 13 670
48 14 519
48 15 623
48 16 284
48 17 991
48 18 176
48 19 463
48 20 150
48 21 651
48 22 294
48 23 657
48 24 521
48 25 93
48 26 806
48 27 431
48 28 365
48 29 427
48 30 883
48 31 287
48 32 271
48 33 190
48 34 214
48 35 760
48 36 176
48 37 77
48 38 413
48 39 878
48 40 975
48 41 649
48 42 638
48 43 432
48 44 220
48 45 275
48 46 723
48 47 459
49 1 337
49 2 797
49 3 402
49 4 542
49 5 53
49 6 699
49 7 429
49 8 831
49 9 983
49 10 752
49 11 678
49 12 888
49 13 563
49 14 415
49 15 520
49 16 765
49 17 767
49 18 481
49 19 51
49 20 910
49 21 307
49 22 726
49 23 999
49 24 808
49 25 250
49 26 573
49 27 353
49 28 475
49 29 248
49 30 4
49 31 53
49 32 177
49 33 826
49 34 247
49 35 292
49 36 17
49 37 405
49 38 983
49 39 256
49 40 256
49 41 21
49 42 68
49 43 361
49 44 510
49 45 915
49 46 38
49 47 313
49 48 188
50 1 444
50 2 896
50 3 539
50 4 807
50 5 3
50 6 926
50 7 836
50 8 67
50 9 899
50 10 556
50 11 266
50 12 809
50 13 364
50 14 503
50 15 654
50 16 230
50 17 160
50 18 726
50 19 216
50 20 998
50 21 452
50 22 915
50 23 164
50 24 135
50 25 904
50 26 551
50 27 342
50 28 801
50 29 182
50 30 759
50 31 206
50 32 353
50 33 306
50 34 484
50 35 720
50 36 318
50 37 544
50 38 723
50 39 986
50 40 146
50 41 790
50 42 838
50 43 667
50 44 885
50 45 618
50 46 186
50 47 526
50 48 146
50 49 447
51 1 574
51 2 647
51 3 991
51 4 515
51 5 306
51 6 151
51 7 631
51 8 606
51 9 803
51 10 469
51 11 43
51 12 710
51 13 71
51 14 510
51 15 905
51 16 70
51 17 511
51 18 258
51 19 472
51 20 299
51 21 823
51 22 640
51 23 263
51 24 511
51 25 13
51 26 722
51 27 698
51 28 660
51 29 757
51 30 549
51 31 64
51 32 523
51 33 622
51 34 197
51 35 431
51 36 24
51 37 896
51 38 853
51 39 401
51 40 837
51 41 44
51 42 986
51 43 827
51 44 459
51 45 28
51 46 934
51 47 862
51 48 199
51 49 1000
51 50 467
52 1 990
52 2 764
52 3 130
52 4 140
52 5 895
52 6 402
52 7 561
52 8 507
52 9 318
52 10 768
52 11 752
52 12 517
52 13 267
52 14 981
52 15 714
52 16 644
52 17 207
52 18 544
52 19 881
52 20 581
52 21 125
52 22 73
52 23 646
52 24 561
52 25 585
52 26 36
52 27 776
52 28 616
52 29 150
52 30 927
52 31 255
52 32 347
52 33 813
52 34 586
52 35 271
52 36 19
52 37 308
52 38 584
52 39 377
52 40 42
52 41 422
52 42 883
52 43 62
52 44 171
52 45 706
52 46 208
52 47 246
52 48 963
52 49 198
52 50 813
52 51 453
53 1 345
53 2 39
53 3 591
53 4 661
53 5 319
53 6 120
53 7 723
53 8 84
53 9 153
53 10 131
53 11 298
53 12 394
53 13 610
53 14 642
53 15 598
53 16 130
53 17 26
53 18 90
53 19 994
53 20 306
53 21 317
53 22 822
53 23 640
53 24 467
53 25 224
53 26 540
53 27 411
53 28 694
53 29 362
53 30 804
53 31 767
53 32 321
53 33 891
53 34 463
53 35 494
53 36 357
53 37 873
53 38 138
53 39 514
53 40 878
53 41 637
53 42 140
53 43 191
53 44 885
53 45 715
53 46 458
53 47 849
53 48 378
53 49 160
53 50 681
53 51 413
53 52 671
54 1 324
54 2 1
54 3 397
54 4 170
54 5 400
54 6 659
54 7 650
54 8 148
54 9 309
54 10 475
54 11 575
54 12 251
54 13 730
54 14 339
54 15 750
54 16 746
54 17 355
54 18 779
54 19 139
54 20 769
54 21 681
54 22 10
54 23 355
54 24 69
54 25 897
54 26 63
54 27 635
54 28 5
54 29 702
54 30 903
54 31 500
54 32 803
54 33 92
54 34 639
54 35 266
54 36 322
54 37 461
54 38 221
54 39 869
54 40 837
54 41 565
54 42 246
54 43 671
54 44 590
54 45 169
54 46 755
54 47 215
54 48 114
54 49 448
54 50 150
54 51 103
54 52 584
54 53 451
55 1 605
55 2 437
55 3 700
55 4 201
55 5 605
55 6 533
55 7 853
55 8 244
55 9 493
55 10 820
55 11 579
55 12 716
55 13 150
55 14 150
55 15 561
55 16 238
55 17 182
55 18 928
55 19 668
55 20 214
55 21 261
55 22 779
55 23 805
55 24 344
55 25 480
55 26 672
55 27 557
55 28 416
55 29 852
55 30 710
55 31 901
55 32 701
55 33 354
55 34 19
55 35 470
55 36 508
55 37 112
55 38 428
55 39 142
55 40 721
55 41 636
55 42 878
55 43 946
55 44 387
55 45 208
55 46 764
55 47 536
55 48 663
55 49 826
55 50 636
55 51 752
55 52 696
55 53 315
55 54 954
56 1 7
56 2 247
56 3 494
56 4 856
56 5 509
56 6 135
56 7 515
56 8 99
56 9 575
56 10 801
56 11 779
56 12 641
56 13 541
56 14 573
56 15 24
56 16 547
56 17 8
56 18 443
56 19 491
56 20 150
56 21 455
56 22 425
56 23 281
56 24 678
56 25 443
56 26 801
56 27 296
56 28 776
56 29 937
56 30 835
56 31 376
56 32 605
56 33 486
56 34 764
56 35 520
56 36 490
56 37 271
56 38 127
56 39 329
56 40 274
56 41 275
56 42 768
56 43 30
56 44 841
56 45 79
56 46 51
56 47 722
56 48 490
56 49 29
56 50 127
56 51 727
56 52 111
56 53 794
56 54 310
56 55 163
57 1 339
57 2 555
57 3 881
57 4 129
57 5 143
57 6 340
57 7 877
57 8 118
57 9 529
57 10 241
57 11 699
57 12 556
57 13 313
57 14 547
57 15 588
57 16 574
57 17 135
57 18 11
57 19 300
57 20 410
57 21 178
57 22 785
57 23 532
57 24 58
57 25 261
57 26 758
57 27 924
57 28 52
57 29 272
57 30 315
57 31 713
57 32 503
57 33 107
57 34 752
57 35 326
57 36 781
57 37 572
57 38 875
57 39 512
57 40 458
57 41 944
57 42 514
57 43 811
57 44 405
57 45 112
57 46 974
57 47 421
57 48 151
57 49 509
57 50 666
57 51 804
57 52 913
57 53 269
57 54 422
57 55 568
57 56 893
58 1 299
58 2 256
58 3 458
58 4 747
58 5 207
58 6 571
58 7 526
58 8 338
58 9 283
58 10 54
58 11 785
58 12 164
58 13 970
58 14 789
58 15 914
58 16 81
58 17 518
58 18 316
58 19 842
58 20 204
58 21 754
58 22 651
58 23 267
58 24 114
58 25 181
58 26 529
58 27 430
58 28 751
58 29 820
58 30 351
58 31 708
58 32 620
58 33 508
58 34 621
58 35 847
58 36 191
58 37 582
58 38 841
58 39 897
58 40 621
58 41 144
58 42 151
58 43 166
58 44 173
58 45 348
58 46 191
58 47 765
58 48 972
58 49 400
58 50 964
58 51 549
58 52 961
58 53 218
58 54 673
58 55 535
58 56 201
58 57 927
59 1 824
59 2 99
59 3 886
59 4 653
59 5 61
59 6 528
59 7 700
59 8 292
59 9 518
59 10 745
59 11 401
59 12 195
59 13 667
59 14 255
59 15 758
59 16 973
59 17 934
59 18 664
59 19 222
59 20 848
59 21 582
59 22 291
59 23 951
59 24 255
59 25 607
59 26 736
59 27 81
59 28 623
59 29 659
59 30 436
59 31 367
59 32 543
59 33 243
59 34 538
59 35 564
59 36 742
59 37 699
59 38 663
59 39 193
59 40 582
59 41 715
59 42 364
59 43 554
59 44 998
59 45 380
59 46 349
59 47 135
59 48 88
59 49 29
59 50 794
59 51 770
59 52 782
59 53 387
59 54 292
59 55 200
59 56 290
59 57 762
59 58 286
60 1 901
60 2 265
60 3 286
60 4 11
60 5 312
60 6 878
60 7 477
60 8 309
60 9 842
60 10 241
60 11 602
60 12 835
60 13 287
60 14 869
60 15 610
60 16 512
60 17 528
60 18 133
60 19 636
60 20 273
60 21 650
60 22 876
60 23 324
60 24 423
60 25 855
60 26 656
60 27 488
60 28 174
60 29 797
60 30 288
60 31 841
60 32 187
60 33 217
60 34 640
60 35 820
60 36 167
60 37 14
60 38 865
60 39 747
60 40 842
60 41 123
60 42 516
60 43 828
60 44 889
60 45 833
60 46 238
60 47 764
60 48 621
60 49 422
60 50 962
60 51 943
60 52 499
60 53 243
60 54 823
60 55 505
60 56 799
60 57 626
60 58 204
60 59 753
61 1 977
61 2 246
61 3 640
61 4 687
61 5 571
61 6 819
61 7 483
61 8 648
61 9 700
61 10 260
61 11 550
61 12 333
61 13 462
61 14 682
61 15 180
61 16 689
61 17 820
61 18 871
61 19 393
61 20 431
61 21 777
61 22 100
61 23 100
61 24 197
61 25 911
61 26 432
61 27 544
61 28 581
61 29 586
61 30 872
61 31 421
61 32 567
61 33 409
61 34 9
61 35 375
61 36 100
61 37 740
61 38 23
61 39 795
61 40 804
61 41 336
61 42 179
61 43 127
61 44 109
61 45 426
61 46 206
61 47 115
61 48 277
61 49 808
61 50 167
61 51 694
61 52 92
61 53 757
61 54 710
61 55 443
61 56 208
61 57 831
61 58 838
61 59 819
61 60 423
62 1 891
62 2 555
62 3 592
62 4 368
62 5 879
62 6 37
62 7 191
62 8 371
62 9 199
62 10 196
62 11 877
62 12 508
62 13 755
62 14 770
62 15 966
62 16 73
62 17 952
62 18 316
62 19 516
62 20 4
62 21 247
62 22 739
62 23 186
62 24 982
62 25 51
62 26 224
62 27 202
62 28 235
62 29 57
62 30 721
62 31 617
62 32 289
62 33 298
62 34 341
62 35 323
62 36 171
62 37 523
62 38 300
62 39 487
62 40 816
62 41 687
62 42 295
62 43 357
62 44 691
62 45 626
62 46 435
62 47 646
62 48 878
62 49 246
62 50 104
62 51 911
62 52 125
62 53 774
62 54 392
62 55 631
62 56 626
62 57 904
62 58 965
62 59 932
62 60 517
62 61 885
63 1 510
63 2 134
63 3 358
63 4 896
63 5 130
63 6 574
63 7 104
63 8 241
63 9 319
63 10 394
63 11 299
63 12 207
63 13 393
63 14 226
63 15 530
63 16 636
63 17 511
63 18 987
63 19 360
63 20 540
63 21 663
63 22 197
63 23 274
63 24 308
63 25 249
63 26 536
63 27 367
63 28 338
63 29 140
63 30 566
63 31 800
63 32 152
63 33 332
63 34 820
63 35 261
63 36 317
63 37 590
63 38 689
63 39 938
63 40 724
63 41 701
63 42 806
63 43 774
63 44 59
63 45 213
63 46 867
63 47 978
63 48 524
63 49 800
63 50 78
63 51 77
63 52 121
63 53 615
63 54 673
63 55 992
63 56 72
63 57 279
63 58 189
63 59 897
63 60 188
63 61 370
63 62 445
64 1 876
64 2 257
64 3 545
64 4 413
64 5 610
64 6 759
64 7 683
64 8 427
64 9 620
64 10 487
64 11 662
64 12 412
64 13 807
64 14 873
64 15 658
64 16 84
64 17 295
64 18 110
64 19 101
64 20 311
64 21 833
64 22 359
64 23 649
64 24 68
64 25 261
64 26 629
64 27 832
64 28 689
64 29 791
64 30 133
64 31 222
64 32 347
64 33 106
64 34 197
64 35 271
64 36 968
64 37 534
64 38 24
64 39 204
64 40 995
64 41 801
64 42 900
64 43 567
64 44 726
64 45 114
64 46 635
64 47 342
64 48 140
64 49 578
64 50 326
64 51 739
64 52 413
64 53 211
64 54 742
64 55 46
64 56 574
64 57 35
64 58 914
64 59 169
64 60 973
64 61 37
64 62 727
64 63 740
65 1 523
65 2 958
65 3 597
65 4 926
65 5 888
65 6 206
65 7 544
65 8 305
65 9 77
65 10 368
65 11 219
65 12 455
65 13 121
65 14 85
65 15 722
65 16 122
65 17 779
65 18 297
65 19 248
65 20 101
65 21 473
65 22 106
65 23 906
65 24 212
65 25 874
65 26 770
65 27 264
65 28 990
65 29 854
65 30 564
65 31 428
65 32 977
65 33 723
65 34 533
65 35 744
65 36 747
65 37 959
65 38 377
65 39 415
65 40 29
65 41 868
65 42 979
65 43 619
65 44 573
65 45 855
65 46 324
65 47 933
65 48 628
65 49 266
65 50 818
65 51 128
65 52 163
65 53 979
65 54 257
65 55 667
65 56 212
65 57 181
65 58 956
65 59 448
65 60 972
65 61 48
65 62 780
65 63 633
65 64 525
66 1 231
66 2 99
66 3 613
66 4 330
66 5 377
66 6 903
66 7 430
66 8 843
66 9 101
66 10 588
66 11 223
66 12 908
66 13 108
66 14 174
66 15 519
66 16 797
66 17 413
66 18 945
66 19 426
66 20 21
66 21 844
66 22 775
66 23 49
66 24 297
66 25 261
66 26 646
66 27 699
66 28 294
66 29 205
66 30 97
66 31 706
66 32 47
66 33 896
66 34 624
66 35 904
66 36 159
66 37 782
66 38 283
66 39 106
66 40 167
66 41 83
66 42 983
66 43 132
66 44 716
66 45 9
66 46 250
66 47 216
66 48 402
66 49 612
66 50 440
66 51 838
66 52 428
66 53 441
66 54 675
66 55 321
66 56 438
66 57 466
66 58 992
66 59 748
66 60 172
66 61 941
66 62 465
66 63 11
66 64 809
66 65 159
67 1 303
67 2 68
67 3 134
67 4 287
67 5 183
67 6 717
67 7 907
67 8 723
67 9 311
67 10 462
67 11 55
67 12 672
67 13 969
67 14 275
67 15 583
67 16 864
67 17 564
67 18 329
67 19 317
67 20 632
67 21 410
67 22 23
67 23 857
67 24 771
67 25 773
67 26 851
67 27 388
67 28 873
67 29 903
67 30 943
67 31 208
67 32 92
67 33 91
67 34 342
67 35 107
67 36 510
67 37 974
67 38 329
67 39 982
67 40 566
67 41 613
67 42 369
67 43 314
67 44 220
67 45 85
67 46 491
67 47 380
67 48 814
67 49 601
67 50 165
67 51 338
67 52 801
67 53 399
67 54 999
67 55 557
67 56 796
67 57 924
67 58 822
67 59 824
67 60 643
67 61 31
67 62 959
67 63 308
67 64 421
67 65 235
67 66 779
68 1 409
68 2 608
68 3 258
68 4 824
68 5 862
68 6 819
68 7 356
68 8 84
68 9 748
68 10 824
68 11 217
68 12 240
68 13 262
68 14 782
68 15 393
68 16 943
68 17 389
68 18 883
68 19 561
68 20 430
68 21 855
68 22 848
68 23 74
68 24 66
68 25 989
68 26 954
68 27 599
68 28 609
68 29 369
68 30 563
68 31 807
68 32 280
68 33 384
68 34 304
68 35 401
68 36 937
68 37 94
68 38 390
68 39 961
68 40 941
68 41 6
68 42 729
68 43 379
68 44 506
68 45 660
68 46 788
68 47 873
68 48 625
68 49 143
68 50 398
68 51 842
68 52 863
68 53 911
68 54 941
68 55 71
68 56 607
68 57 554
68 58 603
68 59 21
68 60 568
68 61 375
68 62 654
68 63 229
68 64 622
68 65 921
68 66 921
68 67 65
69 1 285
69 2 835
69 3 913
69 4 336
69 5 412
69 6 663
69 7 288
69 8 516
69 9 912
69 10 499
69 11 593
69 12 589
69 13 564
69 14 586
69 15 480
69 16 753
69 17 243
69 18 262
69 19 835
69 20 516
69 21 122
69 22 881
69 23 506
69 24 904
69 25 667
69 26 571
69 27 584
69 28 812
69 29 494
69 30 982
69 31 412
69 32 739
69 33 399
69 34 383
69 35 781
69 36 406
69 37 138
69 38 753
69 39 991
69 40 32
69 41 754
69 42 726
69 43 721
69 44 243
69 45 541
69 46 539
69 47 909
69 48 894
69 49 944
69 50 351
69 51 66
69 52 292
69 53 971
69 54 558
69 55 736
69 56 580
69 57 923
69 58 992
69 59 23
69 60 282
69 61 524
69 62 135
69 63 392
69 64 270
69 65 755
69 66 709
69 67 179
69 68 649
70 1 956
70 2 296
70 3 498
70 4 320
70 5 30
70 6 843
70 7 497
70 8 219
70 9 792
70 10 201
70 11 141
70 12 490
70 13 801
70 14 60
70 15 974
70 16 101
70 17 228
70 18 924
70 19 548
70 20 639
70 21 572
70 22 993
70 23 456
70 24 312
70 25 316
70 26 87
70 27 168
70 28 394
70 29 804
70 30 988
70 31 111
70 32 620
70 33 934
70 34 836
70 35 670
70 36 298
70 37 470
70 38 442
70 39 75
70 40 114
70 41 40
70 42 669
70 43 344
70 44 922
70 45 141
70 46 238
70 47 739
70 48 987
70 49 712
70 50 605
70 51 416
70 52 456
70 53 100
70 54 780
70 55 213
70 56 55
70 57 473
70 58 211
70 59 774
70 60 266
70 61 5
70 62 129
70 63 438
70 64 488
70 65 402
70 66 965
70 67 601
70 68 933
70 69 574
71 1 729
71 2 469
71 3 269
71 4 531
71 5 475
71 6 423
71 7 255
71 8 812
71 9 236
71 10 408
71 11 875
71 12 21
71 13 45
71 14 60
71 15 728
71 16 274
71 17 944
71 18 502
71 19 675
71 20 635
71 21 82
71 22 995
71 23 997
71 24 857
71 25 307
71 26 903
71 27 564
71 28 982
71 29 859
71 30 646
71 31 782
71 32 634
71 33 60
71 34 587
71 35 303
71 36 56
71 37 120
71 38 55
71 39 772
71 40 220
71 41 438
71 42 927
71 43 95
71 44 560
71 45 35
71 46 481
71 47 999
71 48 171
71 49 990
71 50 437
71 51 877
71 52 508
71 53 5
71 54 407
71 55 175
71 56 926
71 57 495
71 58 165
71 59 833
71 60 619
71 61 807
71 62 456
71 63 512
71 64 771
71 65 472
71 66 259
71 67 640
71 68 993
71 69 596
71 70 719
72 1 505
72 2 352
72 3 789
72 4 176
72 5 921
72 6 573
72 7 246
72 8 986
72 9 197
72 10 215
72 11 869
72 12 71
72 13 437
72 14 895
72 15 548
72 16 400
72 17 408
72 18 882
72 19 995
72 20 830
72 21 487
72 22 614
72 23 746
72 24 7
72 25 442
72 26 966
72 27 213
72 28 268
72 29 43
72 30 328
72 31 927
72 32 727
72 33 767
72 34 816
72 35 329
72 36 996
72 37 96
72 38 175
72 39 759
72 40 229
72 41 162
72 42 200
72 43 508
72 44 430
72 45 739
72 46 727
72 47 71
72 48 217
72 49 845
72 50 526
72 51 969
72 52 481
72 53 455
72 54 655
72 55 784
72 56 633
72 57 67
72 58 89
72 59 274
72 60 388
72 61 145
72 62 694
72 63 695
72 64 258
72 65 678
72 66 865
72 67 725
72 68 220
72 69 366
72 70 383
72 71 598
73 1 231
73 2 177
73 3 330
73 4 345
73 5 538
73 6 298
73 7 95
73 8 260
73 9 980
73 10 715
73 11 822
73 12 968
73 13 712
73 14 932
73 15 846
73 16 742
73 17 56
73 18 590
73 19 932
73 20 920
73 21 405
73 22 980
73 23 399
73 24 573
73 25 384
73 26 706
73 27 432
73 28 798
73 29 709
73 30 10
73 31 148
73 32 259
73 33 421
73 34 500
73 35 243
73 36 855
73 37 453
73 38 299
73 39 281
73 40 656
73 41 720
73 42 852
73 43 931
73 44 469
73 45 157
73 46 914
73 47 740
73 48 677
73 49 416
73 50 459
73 51 239
73 52 220
73 53 155
73 54 514
73 55 458
73 56 853
73 57 108
73 58 188
73 59 162
73 60 60
73 61 379
73 62 372
73 63 383
73 64 244
73 65 661
73 66 897
73 67 48
73 68 85
73 69 299
73 70 122
73 71 790
73 72 189
74 1 415
74 2 231
74 3 238
74 4 400
74 5 521
74 6 728
74 7 371
74 8 415
74 9 305
74 10 890
74 11 739
74 12 581
74 13 555
74 14 178
74 15 621
74 16 983
74 17 387
74 18 868
74 19 441
74 20 240
74 21 233
74 22 395
74 23 999
74 24 589
74 25 280
74 26 171
74 27 351
74 28 184
74 29 291
74 30 879
74 31 379
74 32 707
74 33 16
74 34 498
74 35 386
74 36 675
74 37 613
74 38 562
74 39 284
74 40 87
74 41 798
74 42 403
74 43 176
74 44 277
74 45 632
74 46 394
74 47 412
74 48 95
74 49 172
74 50 426
74 51 426
74 52 818
74 53 393
74 54 146
74 55 934
74 56 398
74 57 105
74 58 693
74 59 291
74 60 935
74 61 776
74 62 940
74 63 91
74 64 506
74 65 477
74 66 500
74 67 307
74 68 723
74 69 377
74 70 997
74 71 566
74 72 654
74 73 481
